95 97 92 37 100 91 85 93 99 96 6 
52 31 88 62 11 64 49 36 47 48 82 7 19 63 90 32 10 70 1 
40 21 73 72 75 22 41 23 67 39 29 78 34 35 65 66 71 9 81 33 79 3 77 68 80 24 54 55 25 4 56 74 58 
94 59 98 44 14 38 86 16 61 5 84 17 45 46 8 83 60 18 89 
27 69 30 20 51 50 76 12 26 28 
53 2 57 15 43 42 87 13 
